ID_groupA
757
757
22178
17861
757
17861
17861
757
757
17861
757
757
757
17861
757
22178
2653
2653
757
757
757
2653
757
2653
2653
2653
757
22178
757
2653
757
757
757
757
757
757
2653
757
757
22178
22178
757
22178
757
22178
22178
2653
22178
22178
757
2653
20477
17861
757
22178
22178
20477
2653
757
20477
2653
757
757
2653
2653
2653
2653
2653
2653
17861
757
757
757
20477
757
757
20477
757
757
17861
757
757
757
17861
757
757
757
757
757
757
22178
2653
2653
2653
757
757
2653
757
17861
2653
757
20477
2653
2653
757
